db/inputs/298635754151429516270170633215610090.smt2
(set-logic QF_FP)
(declare-const x0 (_ FloatingPoint 8 24))
(declare-const x1 (_ FloatingPoint 8 24))
(declare-const x2 (_ FloatingPoint 8 24))
(declare-const x3 (_ FloatingPoint 8 24))
(declare-const x4 (_ FloatingPoint 8 24))
(declare-const x5 (_ FloatingPoint 8 24))
(declare-const x6 (_ FloatingPoint 8 24))
(declare-const x7 (_ FloatingPoint 8 24))
(declare-const x8 (_ FloatingPoint 8 24))
(assert (fp.geq (fp.sub RNE x6 x5) (fp.neg x5)))
(assert (fp.gt (fp.mul RNE x0 x4) (fp.neg x7)))
(assert (fp.leq (fp.mul RNE x1 x5) (fp.sub RNE x8 x1)))
(check-sat)
