db/data/298635754151429516270170633215610090.z3.out
sat
-------------------
.544407842
